63
125
87	18
86	10
85	21
84	13
83	15
82	20
81	15
80	15
79	14
78	15
77	8
76	13
75	10
74	17
73	11
72	17
71	15
70	18
69	12
68	13
67	23
66	21
65	23
64	22
63	15
62	19
61	17
60	18
59	17
58	18
57	21
56	16
55	15
54	19
53	16
52	22
51	24
50	22
49	6
48	20
47	14
46	10
45	17
44	23
43	14
42	8
41	17
40	20
39	12
38	14
37	11
36	18
35	19
34	20
33	17
32	14
31	18
30	9
29	8
28	10
27	13
26	13
25	17
